69 66 89 4 3 91 88 86 84 83 82 85 71 70 73 76 79 80 81 78 77 96 87 90 
31 35 37 38 39 36 34 28 26 23 18 19 16 14 12 15 17 13 25 9 11 10 8 21 
41 42 43 48 
20 22 24 27 30 29 33 32 6 
93 5 75 2 1 99 100 97 92 94 95 98 7 55 54 53 56 58 60 59 57 40 44 46 45 51 50 52 47 
67 63 62 74 72 61 64 49 65 68 
